webassembly/ejemplos_dzn/folder15_json_24.dzn
TERM = { '.', 's(5)', 's(2)', 's(4)', 'in_1', 'local_0', 'in_6', 'in_2', 'in_4', 'in_3', 'in_9', 'in_8', 's(1)', 's(0)', 'in_7', 'in_5', 's(3)', 'in_0'};
null = '.';
s = 15;
n = 15;
ndeps = 10;
max_registers_sz = 4;
NR = 1;
registers = [|'local_0', 'in_9'|];
dependencies = [|'call[function_index(0)]_2', 'i32.store_3', |'i32.store_3', 'i32.store16_4', |'i32.store16_4', 'i32.load16_s_5', |'i32.store16_4', 'i32.load8_u_6', |'i32.load16_s_5', 'i32.store_8', |'i32.load8_u_6', 'i32.store_8', |'i32.store_8', 'call[function_index(1)]_9', |'call[function_index(1)]_9', 'i32.load16_u_10', |'i32.load16_u_10', 'i32.store16_12', |'i32.store16_12', 'i32.store8_13'|];
GET_ENUM = { GET1, GET2, GET3, GET4, GET5};
SET_ENUM = { SET1, SET2, SET3, SET4, SET5};
TEE_ENUM = { TEE1, TEE2, TEE3, TEE4, TEE5};
N = 11;
OP = { 'call[function_index(0)]_2', 'call[function_index(1)]_9', 'i32.sub_0', 'i32.store_3', 'i32.store16_4', 'i32.load16_s_5', 'i32.load8_u_6', 'i32.store_8', 'i32.load16_u_10', 'i32.store16_12', 'i32.store8_13' };
in_ops = [0, 1, 2, 2, 2, 1, 1, 2, 1, 2, 2 ];
out_ops = [1, 1, 1, 0, 0, 1, 1, 0, 1, 0, 0 ];
in1 = ['.', 'in_6', 'in_0', 's(1)', 'in_2', 'in_4', 's(2)', 's(3)', 's(4)', 's(3)', 'in_7' ];
in2 = ['.', '.', 'in_1', 's(0)', 'in_3', '.', '.', 'in_5', '.', 's(5)', 'in_8' ];
in3 = ['.', '.', '.', '.', '.', '.', '.', '.', '.', '.', '.' ];
out1 = ['s(1)', 's(4)', 's(0)', '.', '.', 's(2)', 's(3)', '.', 's(5)', '.', '.' ];
out2 = ['.', '.', '.', '.', '.', '.', '.', '.', '.', '.', '.' ];
out3 = ['.', '.', '.', '.', '.', '.', '.', '.', '.', '.', '.' ];
comm = [false, false, false, false, false, false, false, false, false, false, false ];
gas = [1, 1, 1, 1, 1, 1, 1, 1, 1, 1, 1 ];
sz = [1, 1, 1, 1, 1, 1, 1, 1, 1, 1, 1 ];
stor = [true, true, false, true, true, false, false, true, false, true, true ];
lb = [ 1, 1, 1, 1, 1, 1, 1, 1, 1, 1, 1 ];
ub = [ 15, 15, 15, 15, 15, 15, 15, 15, 15, 15, 15 ];
startstack = [ 'in_0', 'in_1', 'in_2', 'in_3', 'in_4', 'in_5', 'in_6', 'in_7', 'in_8', 'in_9', null, null, null, null, null ];
endstack = [ null, null, null, null, null, null, null, null, null, null, null, null, null, null, null ];
