webassembly/ejemplos_results/15/folder15_json_24.txt
value = 15;
fgas = [1, 1, 1, 1, 1, 1, 1, 1, 1, 2, 1, 1, 1, 1, 1];
fsize = [1, 1, 1, 1, 1, 1, 1, 1, 1, 1, 1, 1, 1, 1, 1];
states = 
[|   in_0,   in_1, in_2, in_3, in_4, in_5, in_6, in_7, in_8, in_9, '.', '.', '.', '.', '.'
 | 's(0)', 's(0)', in_3, in_4, in_5, in_6, in_7, in_8, in_9,  '.', '.', '.', '.', '.', '.'
 | 's(0)',   in_3, in_4, in_5, in_6, in_7, in_8, in_9,  '.',  '.', '.', '.', '.', '.', '.'
 | 's(1)', 's(0)', in_3, in_4, in_5, in_6, in_7, in_8, in_9,  '.', '.', '.', '.', '.', '.'
 |   in_9,   in_4, in_5, in_6, in_7, in_8, in_9,  '.',  '.',  '.', '.', '.', '.', '.', '.'
 |   in_4,   in_5, in_6, in_7, in_8, in_9,  '.',  '.',  '.',  '.', '.', '.', '.', '.', '.'
 | 's(2)',   in_5, in_6, in_7, in_8, in_9,  '.',  '.',  '.',  '.', '.', '.', '.', '.', '.'
 | 's(3)',   in_5, in_6, in_7, in_8, in_9,  '.',  '.',  '.',  '.', '.', '.', '.', '.', '.'
 | 's(4)',   in_7, in_8, in_9,  '.',  '.',  '.',  '.',  '.',  '.', '.', '.', '.', '.', '.'
 | 's(5)',   in_7, in_8, in_9,  '.',  '.',  '.',  '.',  '.',  '.', '.', '.', '.', '.', '.'
 |   in_7,   in_8, in_9,  '.',  '.',  '.',  '.',  '.',  '.',  '.', '.', '.', '.', '.', '.'
 | 's(3)', 's(5)',  '.',  '.',  '.',  '.',  '.',  '.',  '.',  '.', '.', '.', '.', '.', '.'
 |   in_2,   in_3,  '.',  '.',  '.',  '.',  '.',  '.',  '.',  '.', '.', '.', '.', '.', '.'
 |   in_6,    '.',  '.',  '.',  '.',  '.',  '.',  '.',  '.',  '.', '.', '.', '.', '.', '.'
 | 's(4)',    '.',  '.',  '.',  '.',  '.',  '.',  '.',  '.',  '.', '.', '.', '.', '.', '.'
 |    '.',    '.',  '.',  '.',  '.',  '.',  '.',  '.',  '.',  '.', '.', '.', '.', '.', '.'
 |];
register_states = 
[| local_0, '.', '.', '.', '.'
 | local_0, '.', '.', '.', '.'
 |  's(0)', '.', '.', '.', '.'
 |  's(0)', '.', '.', '.', '.'
 |  's(0)', '.', '.', '.', '.'
 |    in_9, '.', '.', '.', '.'
 |    in_9, '.', '.', '.', '.'
 |    in_9, '.', '.', '.', '.'
 |    in_9, '.', '.', '.', '.'
 |    in_9, '.', '.', '.', '.'
 |    in_9, '.', '.', '.', '.'
 |    in_9, '.', '.', '.', '.'
 |    in_9, '.', '.', '.', '.'
 |    in_9, '.', '.', '.', '.'
 |    in_9, '.', '.', '.', '.'
 |    in_9, '.', '.', '.', '.'
 |];
program = [O('i32.sub_0'), S(SET1), O('call[function_index(0)]_2'), O('i32.store_3'), S(SET1), O('i32.load16_s_5'), O('i32.load8_u_6'), O('i32.store_8'), O('i32.load16_u_10'), POP, O('i32.store8_13'), O('i32.store16_12'), O('i32.store16_4'), O('call[function_index(1)]_9'), G(GET5)];
% time elapsed: 0.89 s
----------
=====UNKNOWN=====
% time elapsed: 0.99 s
